\ This file was automatically generated by Zimpl
\ set vitaminas := {1, 2, 3, 4};
\ set alimentos := {1, 2, 3, 4};
\ param minVitaminasMg[vitaminas] := <1> 0.00008, <2> 0.00007, <3> 0.0001, <4> 0.00006;
\ param vitaminaA[alimentos] := <1> 0.00001,  <2> 0.000005,  <3> 0.000009, <4> 0.00001;
\ param vitaminaB[alimentos] := <1> 0.000008, <2> 0.000007,  <3> 0.000006, <4> 0.000006;
\ param vitaminaC[alimentos] := <1> 0.000015, <2> 0.000003,  <3> 0.000004, <4> 0.000007;
\ param vitaminaD[alimentos] := <1> 0.00002,  <2> 0.000002,  <3> 0.000003, <4> 0.000009;
\ param custoAlimentoReais[alimentos] := <1> 1.20, <2> 1, <3> 2.5, <4> 8;
\ var quantAlimento[alimentos] >= 0;
\ minimize custo :       sum <a> in alimentos:         custoAlimentoReais[a] * quantAlimento[a];
\ subto minVitaminaA :         (sum <a> in alimentos: vitaminaA[a] * quantAlimento[a]) >= minVitaminasMg[1];
\ subto minVitaminaB :         (sum <a> in alimentos: vitaminaB[a] * quantAlimento[a]) >= minVitaminasMg[2];
\ subto minVitaminaC :         (sum <a> in alimentos: vitaminaC[a] * quantAlimento[a]) >= minVitaminasMg[3];
\ subto minVitaminaD :         (sum <a> in alimentos: vitaminaD[a] * quantAlimento[a]) >= minVitaminasMg[4];
\Problem name: file
Minimize
 custo:  +1.2 quantAlimento#1 + quantAlimento#2 +2.5 quantAlimento#3 +8 quantAlimento#4
Subject to
 minVitaminaA_1:
  +1e-005 quantAlimento#4 +9e-006 quantAlimento#3 +5e-006 quantAlimento#2 +1e-005 quantAlimento#1 >= 8e-005
 minVitaminaB_1:
  +6e-006 quantAlimento#4 +6e-006 quantAlimento#3 +7e-006 quantAlimento#2 +8e-006 quantAlimento#1 >= 7e-005
 minVitaminaC_1:
  +7e-006 quantAlimento#4 +4e-006 quantAlimento#3 +3e-006 quantAlimento#2 +1.5e-005 quantAlimento#1 >= 0.0001
 minVitaminaD_1:
  +9e-006 quantAlimento#4 +3e-006 quantAlimento#3 +2e-006 quantAlimento#2 +2e-005 quantAlimento#1 >= 6e-005
Bounds
 0 <= quantAlimento#1 <= +inf
 0 <= quantAlimento#2 <= +inf
 0 <= quantAlimento#3 <= +inf
 0 <= quantAlimento#4 <= +inf
End
